100
0 45 77 63 42 83 27 79 91 34 
35 28 6 85 2 55 13 67 65 46 
12 57 74 75 80 99 16 39 29 4 
22 44 48 49 70 95 17 89 36 7 
24 92 1 81 10 41 68 53 98 90 
52 3 82 50 43 56 32 96 69 25 
87 73 37 19 20 84 76 15 97 60 
59 93 47 26 30 62 64 78 33 51 
38 11 9 94 23 8 5 72 54 18 
66 14 31 21 61 40 86 71 88 58 
